%chk=mol_2111.chk
# wB97XD/Def2SVP opt pop=full gfinput

C 5 H 10 N 2

1 2
N    3.485713   1.076256   5.193950
C    4.721197   1.426309   3.130426
N    6.760004   0.019067   2.481343
C    8.645837   1.203586   0.969033
C   10.516156   2.832983   2.515490
C   12.637203   1.724016   0.849640
C   10.896708  -0.571151   0.394348
H    2.014505   2.335683   5.283882
H    4.180755   2.896232   1.751757
H    7.372388  -1.080942   3.930687
H    7.886621   2.132858  -0.721157
H   10.686742   2.321340   4.516483
H   10.253786   4.877081   2.368035
H   13.022179   2.831207  -0.857747
H   14.419366   1.323451   1.812663
H   10.951454  -1.355633  -1.516448
H   11.186404  -2.106213   1.756274

