%chk=mol_7029.chk
# wB97XD/Def2SVP opt pop=full gfinput

C 6 H 11 N 1

1 2
C    1.546854   0.591824   0.441138
C    4.335296   0.138725   0.248915
C    5.322470  -2.198848   0.189596
C    6.115267   2.323872   0.070732
C    5.072762   5.055509   0.189218
N    7.299313   5.760490   1.744690
C    7.477778   3.073961   2.545782
H    0.888360   1.751058  -1.140828
H    1.090429   1.557134   2.213323
H    0.472753  -1.176997   0.402909
H    4.131112  -3.867173   0.296857
H    7.343816  -2.519137   0.032352
H    7.431820   2.092021  -1.525349
H    3.287575   5.334583   1.198351
H    4.952594   6.036674  -1.626960
H    8.808788   6.328277   0.686197
H    9.410193   2.367336   2.753142
H    6.439204   2.678706   4.295140

