%chk=mol_3211.chk
# wB97XD/Def2SVP opt pop=full gfinput

C 6 H 8 O 1

1 2
C    4.436812  -0.802227   3.189612
C    5.075162  -0.926967   0.396162
O    7.207983   0.658229  -0.045127
C    8.130943   0.823448  -2.467566
C    7.206584  -0.354891  -4.515141
C   10.280942   2.418283  -2.753766
C   12.096326   3.765034  -2.982498
H    2.815427  -2.005736   3.629521
H    3.997999   1.140847   3.750199
H    6.050525  -1.409377   4.334030
H    3.450432  -0.264014  -0.704055
H    5.521553  -2.884365  -0.112968
H    5.581986  -1.594627  -4.453669
H    8.079335  -0.097737  -6.355470
H   13.702650   4.959095  -3.172000

