%chk=Atom_en_N.chk
#p wB97XD/Def2SVP SP pop=full gfinput

N 1

0 4
N   0.00000000   0.00000000   0.00000000

