%chk=mol_4515.chk
# wB97XD/Def2SVP opt pop=full gfinput

C 4 H 10 N 2 O 1

1 2
C    1.793275  -0.335256   0.220644
C    4.626428   0.055199  -0.195700
C    5.645840  -1.781142  -2.179724
N    5.189944   2.704179  -0.803625
N    4.650975   3.593069  -3.283550
C    5.524331   4.509510   1.079695
O    5.611126   6.798932   0.729037
H    1.084778   0.921827   1.705346
H    1.394656  -2.284225   0.791550
H    0.714260   0.062455  -1.501312
H    5.580909  -0.365038   1.596648
H    4.693116  -1.552278  -4.003479
H    5.373720  -3.740089  -1.568737
H    7.671948  -1.482226  -2.482363
H    6.336838   4.161687  -4.045639
H    3.676878   5.260979  -3.076928
H    5.738985   3.666276   2.971764

