%chk=mol_0120.chk
#p wB97XD/Def2SVP opt freq pop=full gfinput

re-optimize from gaff

1 2
S         -0.51660       -1.27990       -0.00267
C         -1.31343        0.26757       -0.01926
C         -0.40651        1.29414       -0.03592
C          0.94535        0.84149       -0.03546
C          1.05130       -0.52423       -0.01847
H         -2.39627        0.29272       -0.01533
H         -0.67604        2.34523       -0.04826
H          1.79342        1.51838       -0.04743
H          1.93104       -1.15611       -0.01387

