%chk=mol_0120.chk
# wB97XD/Def2SVP opt freq pop=full gfinput

C 4 H 4 S 1

1 2
S   -0.51750982  -1.27011955  -0.00279000
C   -1.30290961   0.25095990  -0.01908999
C   -0.40604985   1.29620957  -0.03594999
C    0.94496965   0.84142971  -0.03545999
C    1.02706957  -0.53364974  -0.01824999
H   -2.38300920   0.30365989  -0.01551999
H   -0.70481974   2.33738923  -0.04804998
H    1.81294930   1.48974943  -0.04713998
H    1.91918933  -1.14457953  -0.01397000

