%chk=mol_4491.chk
# wB97XD/Def2SVP opt pop=full gfinput

C 4 H 10 N 2 O 1

1 2
C    1.830086  -0.840890   0.242584
C    4.582057  -0.810352  -0.628693
C    5.499027  -3.481745  -1.201110
N    4.891632   0.780778  -2.852107
C    4.985211   3.349464  -2.649226
N    5.092774   4.487911  -4.944771
O    4.986364   4.562253  -0.688541
H    1.181570   1.062158   0.735236
H    1.597763  -2.041339   1.912497
H    0.581601  -1.555623  -1.246520
H    5.746222  -0.017461   0.891818
H    4.399037  -4.344348  -2.729086
H    5.342936  -4.692492   0.469994
H    7.482049  -3.463868  -1.795580
H    4.146702   0.145282  -4.488855
H    6.133787   3.607544  -6.277746
H    5.380523   6.376673  -4.823412

