%chk=Atom_en_S.chk
#p wB97XD/Def2SVP SP pop=full gfinput

S 1

0 3
S   0.00000000   0.00000000   0.00000000

