%chk=mol_4582.chk
# wB97XD/Def2SVP opt pop=full gfinput

C 4 H 8 N 2 O 1

1 2
C    1.535138  -0.165068  -0.093863
C    4.296935  -0.720383   0.188236
C    5.305482  -2.993421  -0.308139
O    5.689965   1.315438   1.206344
C    8.009755   1.802704   0.245003
N    9.428694   3.508125   1.267572
N   11.706286   3.756776   0.107242
H    1.249109   1.352269  -1.469035
H    0.739185   0.436394   1.719348
H    0.471014  -1.819164  -0.735330
H    4.147911  -4.531866  -1.018978
H    7.284479  -3.406042   0.022620
H    8.529487   0.669492  -1.423209
H   12.429315   5.498820   0.546282
H   12.976863   2.531024   0.901210

