%chk=mol_6213.chk
# wB97XD/Def2SVP opt pop=full gfinput

C 5 H 5 N 1 O 1

1 2
O    1.769483   0.146643   0.026702
C    4.456050   0.033070   0.029688
C    5.531965   2.707637   0.000000
C    8.260730   2.707637   0.000000
C   10.509807   2.707637   0.000000
C   13.412293   2.706787   0.000019
N   15.607399   2.695543   0.000132
H    1.154434  -1.586387   0.045391
H    5.068642  -1.030090  -1.637845
H    5.066564  -0.991936   1.721673
H    4.805989   3.750993   1.636956
H    4.806121   3.714332  -1.659822

