%chk=mol_5819.chk
# wB97XD/Def2SVP opt freq pop=full gfinput

C 4 H 10 N 2 O 1

1 2
N    1.92090929  -0.65639979  -1.25788951
C    2.31277895  -0.20072992  -0.03750999
N    2.03358912  -0.84192967   1.04864967
C    3.14748883   1.05759966   0.05674998
C    4.64512825   0.75373971  -0.00868000
C    5.18606806   0.05867998   1.23938954
O    4.75356817  -1.29043949   1.31156945
H    2.44722915  -0.31327990  -2.05608916
H    1.72188938  -1.64744937  -1.32644951
H    1.44019949  -1.64565933   0.82117969
H    2.90131903   1.58507943   0.98431963
H    2.87370896   1.71449935  -0.77662969
H    5.17838812   1.70353937  -0.13259995
H    4.85485792   0.13608995  -0.89098972
H    4.88938808   0.57973975   2.15490913
H    6.27964735   0.04547998   1.20113957
H    3.78969860  -1.26474953   1.50624943

