%chk=mol_2316.chk
# wB97XD/Def2SVP opt pop=full gfinput

C 6 H 8 O 1

1 2
C    1.882375  -0.001002   0.313770
C    4.721216  -0.026494  -0.122530
C    5.602566  -2.309718  -1.669781
C    6.668012  -1.211825  -4.048492
C    6.653612   1.305177  -4.145813
C    5.512048   2.162943  -1.765798
O    5.239700   4.396826  -1.252303
H    1.319275   1.687450   1.370467
H    1.287640  -1.663715   1.391216
H    0.840267   0.018293  -1.476273
H    5.743067   0.063797   1.675639
H    4.063119  -3.626441  -2.090472
H    7.075135  -3.354169  -0.655603
H    7.398315  -2.391259  -5.554472
H    7.303886   2.550828  -5.615246

