%chk=mol_3619.chk
# wB97XD/Def2SVP opt freq pop=full gfinput

C 5 H 6 O 2

1 2
O    1.24225950   0.24099992   0.48690981
C    2.28646922  -0.05422998  -0.06663997
O    2.57457900  -1.25254953  -0.65492976
C    3.91132855  -1.24410951  -1.19478953
C    4.49167824   0.10295996  -0.92888969
C    3.91088843   1.35558951  -1.52899933
C    3.43934870   0.85743970  -0.18787993
H    4.48456860  -2.03281927  -0.69694972
H    3.86027837  -1.46008945  -2.26651907
H    5.50665808   0.09735997  -0.56269979
H    4.52826834   2.24601912  -1.54640937
H    3.23877883   1.26803958  -2.37564921
H    3.71931863   1.40591955   0.70063978

