%chk=mol_0709.chk
# wB97XD/Def2SVP opt freq pop=full gfinput

C 5 H 10 O 1

1 2
C    1.01409960   0.00023000   0.11073996
C    2.51099920   0.28849989   0.08937997
C    2.93155885   1.74595940   0.05943998
C    2.08300924   2.78947902   0.07743996
C    4.42119837   1.97013927  -0.01674999
O    5.03198814   1.47976947   1.16736960
H    0.84181964  -1.08114958   0.12903996
H    0.51807982   0.40128985  -0.77953970
H    0.53800982   0.42717981   0.99989963
H    2.93762898  -0.21132992  -0.78936970
H    2.95607901  -0.18607992   0.97253960
H    1.00621963   2.66493917   0.12256996
H    2.44334912   3.81404853   0.04431998
H    4.67763805   3.03004885  -0.11633995
H    4.84823847   1.44325948  -0.87614965
H    4.52189827   1.84226930   1.91144931

