%chk=mol_4955.chk
# wB97XD/Def2SVP opt pop=full gfinput

C 5 H 9 N 1 O 1

1 2
C    2.204706  -0.046185  -0.060849
N    4.954049  -0.269135  -0.120602
C    5.912840  -1.419978  -2.421363
C    6.147355   1.404444  -1.986650
C    8.599029   2.704652  -1.259087
C   11.184722   1.910267  -2.159352
O    9.857794   3.955877  -3.322819
H    1.662997   1.523252   1.173841
H    1.388854  -1.775625   0.729567
H    1.330896   0.273538  -1.913197
H    4.583549  -2.077848  -3.831949
H    7.576025  -2.590342  -2.198167
H    4.880728   2.589681  -3.094068
H    8.533191   3.744039   0.511624
H   11.372334   0.175537  -3.223986
H   12.794315   2.368488  -0.983943

