%chk=mol_3959.chk
# wB97XD/Def2SVP opt pop=full gfinput

C 5 H 9 N 1 O 1

1 2
C    1.826439   0.020598   0.073964
C    4.705059  -0.047489  -0.099267
C    5.616379   0.311805  -2.800328
C    5.836230  -2.361610   1.161615
O    6.206239  -1.635199   3.746722
N    6.603743   1.012780   3.785235
C    5.787097   1.869563   1.655778
H    1.170478  -0.176387   2.029263
H    0.979804  -1.508323  -1.035645
H    1.081925   1.817765  -0.637858
H    7.682965   0.418688  -2.895193
H    4.885131   2.074749  -3.604596
H    5.000216  -1.251509  -4.008997
H    7.683437  -2.882720   0.382065
H    4.599027  -4.017047   1.087197
H    5.795885   3.888981   1.164752

