%chk=mol_4171.chk
# wB97XD/Def2SVP opt freq pop=full gfinput

C 4 H 7 N 1 O 2

1 2
C    1.10179949   0.00148000   0.14217995
C    2.57446909   0.01745999  -0.12137996
N    3.18753886   1.11752963  -0.43266982
O    4.57750797   1.01458967  -0.66719973
C    5.19121790   0.03814999   0.16816995
C    4.54668856  -1.27999949  -0.17604993
O    3.13481879  -1.20664966   0.05311998
H    0.71782970  -1.02170956   0.13918994
H    0.58482981   0.56989980  -0.63521981
H    0.90554965   0.45598984   1.11623955
H    6.26371765   0.02103999  -0.04294998
H    5.04004812   0.31484988   1.21756947
H    4.95146799  -2.08359933   0.44625983
H    4.69815826  -1.54312944  -1.22861958

