%chk=mol_5373.chk
# wB97XD/Def2SVP opt freq pop=full gfinput

C 4 H 9 N 1 O 2

1 2
C    1.38358951  -0.28434989  -0.18502992
O    2.75293875  -0.04869998   0.11784996
C    3.12118888   1.31102943  -0.12519994
C    4.59174824   1.48706949   0.21048993
C    5.42596817   0.79125971  -0.82594967
N    6.22575760   1.46204948  -1.59089935
O    6.87625742   0.57082975  -2.45290923
H    1.16509962  -1.33752954   0.01029000
H    1.18311954  -0.07560997  -1.24012959
H    0.74014974   0.33074990   0.45098984
H    2.51956892   1.96099925   0.52055979
H    2.92343879   1.56530941  -1.17324948
H    4.82678795   1.03731966   1.18032956
H    4.85230780   2.54987907   0.23254991
H    5.32609844  -0.30713987  -0.90311962
H    7.46733761   1.16085958  -2.95659900

