%chk=mol_1989.chk
# wB97XD/Def2SVP opt freq pop=full gfinput

C 5 H 6 N 2

1 2
N    0.99999964   0.00000000   0.00000000
C    2.15100908   0.00000000   0.00000000
C    3.55700850   0.00000000   0.00000000
C    4.33360815  -1.08430958  -0.05877998
C    5.76639748  -0.69563973  -0.05763998
N    5.78441763   0.77677971  -0.14134994
C    4.38824844   1.22947955   0.04490998
H    3.98948836  -2.10835910  -0.09513997
H    6.25560808  -1.02512968   0.86416966
H    6.29391766  -1.13290954  -0.91118962
H    6.08087778   1.03733957  -1.08200955
H    4.11383867   1.93615925  -0.74570972
H    4.29360819   1.73230934   1.01354969

