%chk=mol_5393.chk
# wB97XD/Def2SVP opt freq pop=full gfinput

C 6 H 13 N 1

1 2
C    0.95474964  -0.07674997  -0.05666998
C    2.44166899  -0.17581993  -0.08416997
C    3.14915872  -0.66214979  -1.32239950
C    3.24535871   0.78921968  -0.92035967
C    4.54399872   1.34250951  -0.40744984
C    4.30924797   2.47216916   0.59894973
N    5.57529831   3.03047872   1.06570959
H    0.64246976   0.68855971   0.66099977
H    0.51898980  -1.03238964   0.25199991
H    0.54084980   0.18566993  -1.03597963
H    2.83997893  -0.48402980   0.87650967
H    2.55794907  -0.90587962  -2.19837904
H    4.01717854  -1.29873955  -1.19126952
H    2.71458912   1.51076949  -1.53251946
H    5.12375784   1.71696937  -1.26060951
H    5.14183807   0.54872978   0.05995998
H    3.74059844   2.09805918   1.45725942
H    3.71435857   3.26802874   0.13804995
H    6.12348795   2.30085921   1.51861954
H    5.38814783   3.73191857   1.78113937

