%chk=mol_6555.chk
# wB97XD/Def2SVP opt pop=full gfinput

C 3 H 5 N 1 O 2 S 1

1 2
C    1.889726   0.000000   0.000000
C    4.618491   0.000000   0.000000
C    6.867567   0.000000   0.000000
S   10.223626   0.045996   0.087154
N   11.218265  -1.338625   2.735908
O   10.790545  -1.521570  -2.060236
O   10.643467   2.725023   0.264033
H    1.145136   1.929165   0.022072
H    1.145136  -0.983678   1.659671
H    1.145117  -0.945468  -1.681724
H   11.694400  -0.001020   4.039970
H   12.660730  -2.555552   2.345509

