%chk=mol_1233.chk
# wB97XD/Def2SVP opt pop=full gfinput

C 5 H 10 N 2

1 2
C    2.836328   0.346368   2.896780
C    3.535470   0.924794   0.174195
C    5.233691   3.248930   0.022960
C    4.043126   5.807507  -0.304851
C    1.566035   6.299629  -0.154315
N    7.653051   2.812215   0.191240
N    9.212188   4.833825   0.122568
H    1.648030  -1.342896   2.989981
H    1.799851   1.914179   3.759081
H    4.527330   0.011036   4.040669
H    1.841255   1.179869  -0.983168
H    4.556432  -0.688408  -0.633020
H    5.341916   7.344269  -0.702751
H    0.152841   4.872772   0.244757
H    0.886149   8.216831  -0.428458
H   11.024492   4.216924  -0.149156
H    9.254178   5.694633   1.853273

