%chk=mol_3570.chk
# wB97XD/Def2SVP opt freq pop=full gfinput

C 6 H 8 O 1

1 2
O    1.16193950  -0.10204996  -0.57566983
C    2.53682899  -0.04219998  -0.23064992
C    2.76016879   1.22093952   0.54933977
C    3.25091887   1.24344945   1.79966938
C    3.61741877  -0.00295000   2.56070924
C    3.36120892  -1.27148950   1.79246926
C    2.87543893  -1.28638959   0.53827977
H    0.68540972  -0.28299987   0.25367990
H    3.12157893  -0.00968000  -1.15471959
H    2.51473927   2.15329909   0.04702998
H    3.39900875   2.19343925   2.30423903
H    4.67910814   0.04213998   2.82684898
H    3.04185891  -0.03016999   3.49215865
H    3.58959866  -2.20796919   2.29256916
H    2.71692896  -2.23310924   0.03023999

