%chk=mol_3785.chk
# wB97XD/Def2SVP opt pop=full gfinput

C 5 H 10 O 2

1 2
O    4.812773  -1.720444   1.538388
C    4.292891   0.052950  -0.432332
C    5.482152   2.611072   0.234250
O    4.463382   3.400657   2.621390
C    8.376929   2.433306   0.427003
C    9.579343   4.991541   0.763846
C   11.312789   5.976845  -0.795386
H    3.965533  -3.287689   1.078599
H    2.236547   0.239069  -0.568014
H    5.035497  -0.684383  -2.216233
H    4.935776   4.014307  -1.185369
H    4.616620   1.921568   3.718603
H    9.131837   1.510118  -1.267723
H    8.914103   1.275924   2.061351
H    8.975329   6.075186   2.406018
H   11.980561   4.968336  -2.450484
H   12.105699   7.833992  -0.430650

