%chk=mol_6383.chk
# wB97XD/Def2SVP opt freq pop=full gfinput

C 4 H 3 N 1 O 2

1 2
O    0.98162961   0.05595998   0.00000000
N    2.37918901  -0.04429998   0.00000000
C    2.87892890   1.14074945   0.00000000
C    4.31101847   1.12362957   0.00000000
C    5.51228809   1.11458957   0.00000000
C    6.95116758   1.10162961  -0.00000000
O    7.58480740   2.14703918  -0.00000000
H    0.70344973  -0.87975967   0.00000000
H    2.32047915   2.08925915   0.00000000
H    7.42318726   0.10679996  -0.00000000

