%chk=mol_6252.chk
# wB97XD/Def2SVP opt freq pop=full gfinput

C 4 H 6 N 2 O 1

1 2
O    2.71344900  -0.67615974  -0.48269984
C    2.27152920   0.17137994   0.28990987
C    2.91786885   1.52475941   0.54532981
N    4.33054829   1.48265934   0.15489995
C    4.96776819   2.80539894   0.16320994
C    4.47204828   3.73806858  -0.87126970
N    4.06004858   4.46661806  -1.67554939
H    1.30502951   0.01425999   0.80027968
H    2.83079886   1.74102926   1.61436939
H    2.34105897   2.26152921  -0.02195999
H    4.40543842   1.05490959  -0.77287972
H    6.04293776   2.65663886   0.01004000
H    4.86305809   3.25826883   1.15656960

