%chk=mol_6062.chk
# wB97XD/Def2SVP opt freq pop=full gfinput

C 4 H 6 N 2 O 1

1 2
O    0.84707969   0.03401999   0.16552994
C    2.07769918   0.01730999   0.08531997
C    2.88050890   1.27778947  -0.13338995
N    4.21647835   1.06600964   0.42411983
N    4.95403814   0.01057000   0.00608000
C    4.30499840  -1.10575962  -0.13058995
C    2.83651900  -1.27827954   0.10355996
H    2.39204907   2.10629916   0.38777983
H    2.93076873   1.49302948  -1.20503962
H    4.76417828   1.92756927   0.35296986
H    4.87396812  -2.00773931  -0.41118985
H    2.44754910  -1.92179930  -0.69140971
H    2.69636893  -1.77372932   1.06821954

