%chk=mol_3934.chk
# wB97XD/Def2SVP opt freq pop=full gfinput

C 5 H 7 N 1 O 1

1 2
C    0.95677966   0.04239998  -0.00722000
C    2.44126916   0.00832000  -0.00048000
C    3.30271864   1.09259951  -0.00184000
N    4.57774830   0.61135978   0.00354000
O    5.73230791   1.37530947  -0.00270000
C    4.57547855  -0.74735969   0.00949000
C    3.26044869  -1.15902948   0.00654000
H    0.58222979   1.07100952   0.00313000
H    0.55933982  -0.47299981   0.87286967
H    0.56843984  -0.45204982  -0.90326965
H    3.09746885   2.15363932  -0.00788000
H    5.35747814   2.26727915   0.05191998
H    5.50224829  -1.30333948   0.01349000
H    2.92351890  -2.18842912   0.00797000

