%chk=mol_6587.chk
# wB97XD/Def2SVP opt pop=full gfinput

C 4 H 6 N 2 S 1

1 2
C    1.879446   0.069164  -0.015874
N    4.608607  -0.079860  -0.002702
C    6.183448   2.016073   0.007710
C    8.664659   1.513179   0.020938
S    9.215420  -1.741666   0.020787
C    5.902711  -2.352501  -0.001342
N    5.108459  -4.640525  -0.013530
H    1.215132   2.029868   0.002419
H    1.096589  -0.876398   1.650184
H    1.114901  -0.840437  -1.710127
H    5.350230   3.884162   0.004384
H   10.171319   2.890979   0.030406
H    3.183319  -4.658836  -0.026872

