%chk=mol_5196.chk
# wB97XD/Def2SVP opt freq pop=full gfinput

C 5 H 9 N 1 O 1

1 2
C    3.81350851  -1.07870960  -1.02351964
N    2.91818881  -0.14233996  -0.34751984
C    1.68620932  -0.65803975   0.05916998
O    1.29001951  -1.80862939  -0.09687996
C    3.30827880   1.18972957  -0.13622995
C    2.36351895   2.13363910   0.57048976
C    4.49955845   1.66736937  -0.53931975
H    4.74146843  -1.17084956  -0.45002985
H    4.02470875  -0.71317977  -2.03356910
H    3.37702870  -2.07741928  -1.11451960
H    1.04007959   0.07400997   0.56227976
H    2.14313912   1.77560925   1.58160949
H    1.42881942   2.23798895   0.00964000
H    2.78538895   3.13965869   0.67478973
H    5.24383831   1.07090962  -1.05332959
H    4.77808809   2.70279884  -0.36371988

