%chk=mol_5914.chk
# wB97XD/Def2SVP opt pop=full gfinput

C 4 H 8 N 2 O 1

1 2
N    2.823459  -4.719742   1.611577
N    4.106602  -2.561429   2.084765
C    4.490878  -1.206420   0.077989
C    5.915070   1.252019   0.219378
O    4.307442   3.132675  -0.841174
C    5.209332   5.550920  -0.887264
C    7.433484   6.438561  -0.074512
H    2.712513  -5.764194   3.236232
H    0.986872  -4.347258   1.131625
H    3.849618  -1.807258  -1.818105
H    7.633832   1.051387  -0.916763
H    6.369738   1.679910   2.193008
H    3.799105   6.781981  -1.724356
H    8.873871   5.258012   0.772577
H    7.857973   8.439309  -0.245305

