%chk=mol_5872.chk
# wB97XD/Def2SVP opt pop=full gfinput

C 4 H 3 N 1 O 2

1 2
N    1.949612   0.109358   0.000000
C    4.509964  -0.080540   0.000000
O    5.628436  -2.099221   0.000000
C    5.889086   2.262664  -0.000000
C    7.050209   4.213163  -0.000000
C    8.444411   6.546465  -0.000000
O    7.339904   8.575256  -0.000000
H    1.048892   1.791706  -0.000000
H    0.928895  -1.503863   0.000000
H   10.517838   6.367961  -0.000000

