%chk=Atom_en_C.chk
#p wB97XD/Def2SVP SP pop=full gfinput

C 1

0 3
C   0.00000000   0.00000000   0.00000000

