%chk=mol_1003.chk
# wB97XD/Def2SVP opt pop=full gfinput

C 4 H 9 N 1 O 1

1 2
C    1.582740  -0.988365  -0.315471
C    4.410451  -0.467499  -0.450775
C    5.597123  -1.802515  -2.707052
O    4.821296   2.189286  -0.771103
N    4.862983   3.357628   1.609499
C    5.277873   5.739759   1.294217
H    0.738335  -0.020541   1.307766
H    1.200505  -3.013187  -0.138706
H    0.614709  -0.274105  -2.001107
H    5.343314  -1.129319   1.278683
H    4.764019  -1.144607  -4.485057
H    5.357676  -3.853227  -2.580175
H    7.621247  -1.380502  -2.808605
H    5.386362   7.000736   2.944023
H    5.538939   6.606502  -0.582206

