%chk=mol_3404.chk
# wB97XD/Def2SVP opt pop=full gfinput

C 6 H 10 O 1

1 2
C    1.999576  -0.276543  -1.075405
O    4.603429  -0.099967  -0.436583
C    5.511159   2.438635  -0.641146
C    8.341270   2.529493   0.000000
C    9.876975   0.918350  -1.850155
C    9.252137   5.101750   0.000000
C   10.002906   7.221815   0.000000
H    1.419638  -2.250777  -0.894181
H    1.691758   0.324315  -3.028702
H    0.859561   0.869217   0.212632
H    4.445373   3.636873   0.675577
H    5.178284   3.138552  -2.564850
H    8.602128   1.703116   1.884416
H    9.657766   1.590148  -3.797140
H    9.286587  -1.063368  -1.787322
H   11.895203   0.985247  -1.390555
H   10.683094   9.117702   0.002400

