%chk=mol_4557.chk
# wB97XD/Def2SVP opt pop=full gfinput

C 5 H 11 N 1 O 1

1 2
C   -0.460942   6.940001   1.441521
C    2.053225   6.955893   0.156621
C    3.172699   4.864250  -0.739223
O    5.439992   4.624387  -1.953920
C    6.869608   6.887636  -2.358794
C    9.317616   6.215593  -3.759043
N    8.832674   5.392314  -6.360119
H   -0.289317   7.757571   3.333553
H   -1.234728   5.031207   1.632402
H   -1.807788   8.079373   0.361788
H    2.939771   8.794502  -0.024623
H    2.312080   3.009143  -0.580033
H    7.363053   7.725503  -0.528726
H    5.770165   8.247955  -3.471200
H   10.295908   4.689507  -2.759095
H   10.562549   7.866212  -3.810935
H    7.563251   3.937528  -6.301953
H   10.450242   4.670099  -7.112419

