%chk=mol_6188.chk
# wB97XD/Def2SVP opt pop=full gfinput

C 5 H 7 N 1 O 1

1 2
O    2.218841  -1.002840   0.046846
C    4.487646  -0.553369  -0.008220
C    5.438934   2.065206  -0.059942
C    7.927855   2.529096  -0.145906
C    9.077828   5.040844  -0.198440
C    9.443736   6.454511   2.246866
N   11.569224   5.269936   0.956409
H    5.921343  -2.064847  -0.024869
H    4.031088   3.550776  -0.018217
H    9.247640   0.949701  -0.187385
H    8.776776   6.125283  -1.913291
H    8.865367   5.579965   4.005010
H    9.370075   8.499081   2.217121
H   12.633405   6.587510   0.030122

