%chk=mol_3535.chk
# wB97XD/Def2SVP opt pop=full gfinput

C 6 H 10 O 1

1 2
O    1.671860   0.075721   0.181527
C    4.399018   0.060074   0.003742
C    5.733807   1.968339   1.826515
C    7.657700  -0.106354   2.492228
C    5.723433  -2.070063   1.568851
C    5.305765   0.229980  -2.670655
C    4.446904  -1.375966  -4.428857
H    1.298336  -0.052270   1.973309
H    4.559380   2.553417   3.431913
H    6.543290   3.670793   0.975647
H    9.383926  -0.037927   1.350852
H    8.180568  -0.234893   4.486059
H    6.530478  -3.652330   0.509017
H    4.544546  -2.849631   3.085715
H    6.658299   1.686335  -3.176894
H    3.065268  -2.823402  -3.973187
H    5.084535  -1.246747  -6.372931

