%chk=mol_5916.chk
# wB97XD/Def2SVP opt pop=full gfinput

C 4 H 8 N 2 O 1

1 2
N    9.438615  -0.952006  -5.206195
N    9.778105   1.085629  -3.691504
C    7.780021   2.475050  -3.500340
O    7.669794   4.630528  -2.116569
C    9.925181   5.410664  -0.806403
C   11.603032   7.242621  -2.183881
C    9.992362   8.143057  -0.031445
H   10.684776  -2.334738  -4.673444
H   10.004815  -0.519694  -7.007331
H    5.945078   2.107744  -4.416139
H   10.812030   4.063403   0.465326
H   11.072076   7.787089  -4.085172
H   13.621902   7.079292  -1.887024
H   10.920028   8.613202   1.732066
H    8.366536   9.308678  -0.468085

