%chk=mol_3829.chk
# wB97XD/Def2SVP opt pop=full gfinput

C 4 H 6 N 2 O 1

1 2
C   -2.759189   1.103562   0.542068
C   -2.551149  -1.446812  -0.735311
C   -0.555315  -2.781790   0.719835
N    1.774887  -2.071499   0.875831
N    2.655746  -0.122133  -0.651294
C    1.508228   2.012955  -0.951761
O   -0.808633   2.821947  -0.235762
H   -4.550309   1.984836  -0.004044
H   -2.733716   0.989328   2.610468
H   -2.025541  -1.317498  -2.729577
H   -4.310371  -2.516870  -0.552783
H   -1.155719  -4.411717   1.870092
H    2.455472   3.546449  -1.991866

