%chk=mol_6917.chk
# wB97XD/Def2SVP opt pop=full gfinput

C 6 H 13 N 1

1 2
C    5.661336  -2.000615  -1.258898
C    4.489668   0.267075   0.059678
C    6.301689   2.439939   0.181395
C    6.621562   4.343611  -1.952767
C    5.175563   4.193038  -4.363888
N    5.270881   4.998874   0.362298
C    6.711438   6.645657   2.042019
H    4.330288  -3.583110  -1.289700
H    7.379418  -2.619954  -0.284272
H    6.172771  -1.547478  -3.211967
H    3.973508  -0.271950   1.991167
H    2.730597   0.784784  -0.898829
H    7.951268   1.989730   1.315495
H    8.496606   5.118096  -2.250343
H    3.183886   3.713841  -4.082054
H    6.015811   2.771359  -5.608858
H    5.247656   6.014583  -5.341481
H    6.040944   6.409233   3.984979
H    6.402033   8.620156   1.507699
H    8.755007   6.299912   2.031096

