%chk=Atom_en_H.chk
#p wB97XD/Def2SVP SP pop=full gfinput

H 1

0 2
H   0.00000000   0.00000000   0.00000000

