%chk=mol_2457.chk
# wB97XD/Def2SVP opt pop=full gfinput

C 6 H 10 O 1

1 2
C    1.857261   0.071280  -0.038399
C    4.737770   0.033373  -0.016724
C    5.798096  -2.336514   1.280819
O    6.711494  -1.630380   3.755434
C    6.879756   0.964006   3.627537
C    5.841049   2.045024   1.612428
C    5.728062   4.775281   0.994884
H    1.122157  -1.515466  -1.145287
H    1.148141   1.819126  -0.890363
H    1.071607  -0.069447   1.872284
H    5.441788   0.144337  -1.961290
H    7.410655  -3.092008   0.218509
H    4.402004  -3.850657   1.482452
H    7.778698   1.842861   5.229194
H    5.508740   5.060819  -1.043696
H    7.465590   5.739419   1.572101
H    4.126311   5.672221   1.948553

