%chk=mol_6089.chk
# wB97XD/Def2SVP opt pop=full gfinput

C 4 H 6 N 2 O 1

1 2
O    2.573750   0.312221   1.203831
C    4.603448  -0.162951   0.229375
N    5.493736  -2.473141  -0.584681
N    7.842553  -2.417621  -1.894545
C    8.656117   0.252637  -1.604661
C    7.333725   2.350007  -2.984823
C    6.571882   1.731292  -0.312447
H    4.286145  -3.958353  -0.708874
H    9.064752  -3.582184  -0.946980
H   10.595392   0.564915  -1.020320
H    8.365761   4.089707  -3.301049
H    6.047218   1.859925  -4.502102
H    7.076401   3.014529   1.192266

