%chk=mol_1411.chk
# wB97XD/Def2SVP opt pop=full gfinput

C 5 H 10 N 2

1 2
C    6.542515  -3.958390   1.535006
C    5.556797  -1.525595   0.432842
C    3.108335  -1.406164  -0.235706
N    7.166711   0.499681   0.018576
C    9.672393   0.965934   0.543636
C   10.819929   3.235343  -0.774826
N   11.143620  -0.253412   2.054076
H    8.232308  -4.593830   0.521357
H    5.156420  -5.492262   1.400023
H    6.983955  -3.724688   3.542840
H    1.838458  -2.995291   0.042160
H    2.285265   0.276316  -1.070964
H    6.320642   1.894715  -0.997586
H    9.912483   4.958244  -0.078669
H   10.506707   3.082691  -2.812385
H   12.851857   3.349275  -0.413850
H   10.174398  -1.674638   2.912710

