%chk=mol_1684.chk
# wB97XD/Def2SVP opt pop=full gfinput

C 6 H 13 N 1

1 2
C    3.145695  -0.911755  -1.964446
N    4.289395   0.139292   0.310388
C    5.932795   2.311702  -0.238540
C    8.221026   1.725244  -1.866634
C    4.295064   4.667756  -0.865797
C    5.908059   6.154800   1.056451
C    6.513810   3.606958   2.342032
H    1.762207  -2.351594  -1.421358
H    4.548268  -1.828820  -3.176365
H    2.135201   0.519694  -3.064021
H    5.172596  -1.272768   1.279401
H    9.489052   3.355814  -2.003469
H    7.673498   1.227566  -3.799087
H    9.317068   0.154107  -1.080602
H    2.298965   4.556054  -0.315717
H    4.401909   5.354482  -2.812612
H    7.558678   7.086152   0.221778
H    4.884413   7.522962   2.217102
H    8.448172   3.419837   3.046711
H    5.209711   3.166765   3.893384

