%chk=Atom_en_O.chk
#p wB97XD/Def2SVP SP pop=full gfinput

O 1

0 3
O   0.00000000   0.00000000   0.00000000

