%chk=mol_3443.chk
# wB97XD/Def2SVP opt pop=full gfinput

C 7 H 12

1 2
C    0.725560   0.367722  -0.124609
C    3.584603   0.616958   0.139462
C    4.650484   3.274480   0.264996
C    3.264351   5.399364   0.111003
C    7.499775   3.424940   0.530673
C    8.312584   3.238292   3.244754
C    9.835363   1.440878   4.171495
H    0.193546  -1.631004  -0.214257
H    0.043804   1.275112  -1.856297
H   -0.256058   1.207819   1.493148
H    4.456220  -0.357650  -1.468657
H    4.155980  -0.409107   1.846508
H    1.224165   5.376724  -0.091841
H    4.143111   7.252485   0.205243
H    8.197576   5.224583  -0.226918
H    8.387399   1.950500  -0.625877
H    7.613877   4.700127   4.513441
H   10.589326  -0.051986   2.984463
H   10.355756   1.432923   6.155707

