%chk=mol_4768.chk
# wB97XD/Def2SVP opt pop=full gfinput

C 4 H 8 N 2 O 1

1 2
C    1.695292   0.186346  -0.500229
C    4.512023  -0.099513  -0.213199
N    5.746071  -2.222053  -0.100968
N    4.326849  -4.346729  -0.182302
C    6.038866   2.243086  -0.101629
C    5.326118   4.436567   1.576599
O    7.244473   2.681427   2.301781
H    1.188222   2.144386  -0.919673
H    0.767796  -0.384219   1.256290
H    1.012629  -0.998890  -2.049559
H    5.494209  -5.864689  -0.458977
H    3.524774  -4.677148   1.546703
H    7.151442   2.634240  -1.774774
H    3.569296   4.384127   2.622203
H    5.925973   6.311836   1.019772

