%chk=mol_1072.chk
# wB97XD/Def2SVP opt pop=full gfinput

C 4 H 5 N 1 O 1

1 2
C    2.660243  -0.444388  -1.126598
O    5.276078  -0.387299  -0.504481
N    6.083766   2.139321  -0.529086
C    8.445715   2.200511   0.031842
C    9.442735   4.721991   0.053082
C   10.286535   6.829376   0.073340
H    2.027487  -2.410686  -1.108494
H    2.356696   0.336730  -3.017231
H    1.568681   0.620605   0.270193
H    9.660620   0.568713   0.464003
H   11.015384   8.705666   0.086001

