%chk=mol_2374.chk
# wB97XD/Def2SVP opt pop=full gfinput

C 6 H 8 O 1

1 2
C    1.811548  -0.241658  -0.007068
C    4.579449   0.125723  -0.008088
C    6.126360   2.233921  -0.001587
C    5.337475   4.921319   0.009316
C    8.641283   1.280686  -0.007748
C    8.452896  -1.310147  -0.017726
O    5.992114  -2.025749  -0.018047
H    0.812903   1.568624   0.016308
H    1.227188  -1.318727   1.658821
H    1.221160  -1.278967  -1.696105
H    6.976642   6.183959   0.021807
H    4.198310   5.336417   1.685919
H    4.210763   5.353216  -1.671576
H   10.379396   2.352444  -0.005386
H    9.814992  -2.830659  -0.025058

